12 48 9 10
6 6 1 1 12 20 9 19 6 2 20 14 18 7 18 15 20 10 14 19 6 2 9 14 11 9 5 1 2 13 11 9 8 20 15 1 14 19 17 3 13 2 6 13 17 12 16 20 
12.9 2.02 9.96 11.02 10.38 11.7 13.02 15.44 2.72 8.74 4.89 5.84 8.05 1.6 1.57 2.12 4.82 14.47 13 7 9.04 6.73 9.95 5.08 6.31 13.5 11.96 0.87 9.36 15.21 10.75 3.84 6.75 9.33 12.69 2.2 9.63 13.44 11.8 14.65 2.36 13.42 8.25 10.97 3.72 2.24 1.8 3 
12.64 6.94 14.46 5.82 10.51 12.75 14.33 13.15 14.45 10.1 6.73 3.5 0.52 7.5 15.63 0.06 11.8 11.58 1.95 4.76 11.14 3.03 5.46 6.32 4.52 8.78 0.54 9.9 2.44 14.01 9.98 0.6 2.36 7.78 12.91 1.36 13.09 14.94 3.93 15.67 11.38 2.13 10.92 10.72 5.65 13.35 6.57 8.65 
8.85 2.2 12.13 9.82 9.69 0.67 4.81 14.98 12.85 12.85 3.67 8.56 2.9 11.48 14.98 6.66 11.84 9.69 4.07 11.37 7.69 4.86 9.65 2.79 9.62 2.73 15.31 2.37 6.31 6.18 4.57 12.3 0.69 7.39 15.79 7.7 0.4 9.22 3.35 3.79 11.27 6.14 3.18 12.05 5.67 0.24 3.88 15.93 
4.69 10.43 3.61 7.21 3.68 8.85 13.43 12.08 2.38 0.68 9.66 1.33 9.82 3.46 14.27 0 12.78 9.58 15.13 12.14 6.51 9.27 2.77 8.73 6.52 11.28 8.95 14.41 8.02 3.12 12.67 9.25 8.88 1.92 11.13 1.37 9.34 8.19 1.91 12 7.77 13.9 6.43 0.75 15.4 11.53 10.19 2.12 
7.84 6.65 0.68 7.49 1.88 9.78 0.34 1.42 11.48 6.3 6.52 13.67 11.43 14.32 9.74 13.62 13.46 0.5 9.02 9.65 5.92 5.78 15.75 15.6 0.2 15.17 0.45 4.3 14.46 2.55 14.85 12.2 3.02 9.79 0.58 1.9 11.83 2.16 2.15 1.05 12.4 4.99 6.5 1.57 14.08 13.07 1.15 5.41 
7.81 8.73 15.67 6.1 6.34 12.84 10.06 12.41 15.23 12.83 13.6 15.49 13.65 2.76 11.47 9.93 9.44 9.77 9.8 8.27 1.1 3.4 11.23 2.93 6.42 7.87 4.52 9.74 4.4 13.57 4.4 12.89 3.64 5.14 3.52 7.83 13.28 3.08 0.98 11.67 8.84 1.72 13.12 5.56 13.06 12.24 0.63 14.69 
4.95 8.66 12.59 7.12 7.3 0.92 14.48 0.55 2.24 9.07 7.69 7.2 13.62 11.35 7.39 11.97 10.71 9.73 8.33 11.95 14.37 10.15 1.51 13.16 1.56 2.55 4.94 14 14.83 3.39 14.41 8.97 15.84 13.54 14.08 14.71 4.57 5.27 7.13 5.11 5.66 0.5 14.85 11.32 8.88 4.34 8.43 6.72 
5.08 14.92 4.46 2.66 4.21 9.08 3.37 8.39 8.36 7.07 3.54 9.36 9.7 3.81 1.51 10.52 0.02 6.25 12.49 10.66 11 13.97 11.2 12.51 10.91 12.15 2.3 14.53 8.89 6.88 3.1 12.04 7.82 2.17 5.34 9.54 6.82 0.38 0.76 10.53 2.78 7.21 8.89 6.87 2.76 12.58 2.95 11.28 
9.74 12.52 6.3 3.84 12.21 2.26 15.06 9.07 4.18 9.4 4.02 15.54 9.55 13.78 4.95 15.65 1.18 7.63 2.56 11.88 2.09 6.01 15.95 3.86 9.21 8.27 12.42 6.71 10.23 2.32 3.96 0.31 15.32 9.47 12.03 13.44 0.92 15.07 3.9 5.89 13.34 11.68 5.15 10.17 15.82 8.23 0.76 5.61 
8 8 8 8 8 8 8 8 8 8 8 8 8 8 8 8 8 8 8 8 8 8 8 8 8 8 8 8 8 8 8 8 8 8 8 8 8 8 8 8 8 8 8 8 8 8 8 8 
5.44 1.21 10.74 0.42 8.05 2.79 5.68 5.06 11.65 14.87 2.5 6.65 8.4 8.84 5.22 4.37 7.01 3.2 9.71 5.54 4.55 10.78 7.54 3.06 11.06 5.03 3.92 9.67 7.26 0.91 8.32 3.66 14.31 1.59 9.23 3.17 9.79 0.47 2.79 13.86 1.25 2.4 14.61 7.56 8.88 11.93 2.01 0.88 
3.43 6.33 9.77 13.15 12.67 2.87 4.21 10.61 15.42 12.78 4.73 6.96 5.21 7.27 13.7 13.45 9.07 7.38 1.26 10.92 8.58 11.53 8.83 1 1.93 4.9 6.92 9.96 4.61 13.37 6.48 8.95 1.56 15.69 13.92 11.62 2.56 12.5 7.13 3.49 0.59 2.19 7.25 12.73 15.41 9.01 11.69 15.16 
1 1 1 1 1 1 1 1 1 1 1 1 1 1 1 1 1 1 1 1 1 1 1 1 1 1 1 1 1 1 1 1 1 1 1 1 1 1 1 1 1 1 1 1 1 1 1 1 
1 1 1 1 1 1 1 1 1 1 1 1 1 1 1 1 1 1 1 1 1 1 1 1 1 1 1 1 1 1 1 1 1 1 1 1 1 1 1 1 1 1 1 1 1 1 1 1 
1 1 1 1 1 1 1 1 1 1 1 1 1 1 1 1 1 1 1 1 1 1 1 1 1 1 1 1 1 1 1 1 1 1 1 1 1 1 1 1 1 1 1 1 1 1 1 1 
1 1 1 1 1 1 1 1 1 1 1 1 1 1 1 1 1 1 1 1 1 1 1 1 1 1 1 1 1 1 1 1 1 1 1 1 1 1 1 1 1 1 1 1 1 1 1 1 
1 1 1 1 1 1 1 1 1 1 1 1 1 1 1 1 1 1 1 1 1 1 1 1 1 1 1 1 1 1 1 1 1 1 1 1 1 1 1 1 1 1 1 1 1 1 1 1 
1 1 1 1 1 1 1 1 1 1 1 1 1 1 1 1 1 1 1 1 1 1 1 1 1 1 1 1 1 1 1 1 1 1 1 1 1 1 1 1 1 1 1 1 1 1 1 1 
1 1 1 1 1 1 1 1 1 1 1 1 1 1 1 1 1 1 1 1 1 1 1 1 1 1 1 1 1 1 1 1 1 1 1 1 1 1 1 1 1 1 1 1 1 1 1 1 
1 1 1 1 1 1 1 1 1 1 1 1 1 1 1 1 1 1 1 1 1 1 1 1 1 1 1 1 1 1 1 1 1 1 1 1 1 1 1 1 1 1 1 1 1 1 1 1 
1 1 1 1 1 1 1 1 1 1 1 1 1 1 1 1 1 1 1 1 1 1 1 1 1 1 1 1 1 1 1 1 1 1 1 1 1 1 1 1 1 1 1 1 1 1 1 1 
1 1 1 1 1 1 1 1 1 1 1 1 1 1 1 1 1 1 1 1 1 1 1 1 1 1 1 1 1 1 1 1 1 1 1 1 1 1 1 1 1 1 1 1 1 1 1 1 
1 1 1 1 1 1 1 1 1 1 1 1 1 1 1 1 1 1 1 1 1 1 1 1 1 1 1 1 1 1 1 1 1 1 1 1 1 1 1 1 1 1 1 1 1 1 1 1 
1 1 1 1 1 1 1 1 1 1 1 1 1 1 1 1 1 1 1 1 1 1 1 1 1 1 1 1 1 1 1 1 1 1 1 1 1 1 1 1 1 1 1 1 1 1 1 1 
0.01 0.01 0.01 0.01 0.01 0.01 0.01 0.01 0.01 0.01 0.01 0.01 0.01 0.01 0.01 0.01 0.01 0.01 0.01 0.01 0.01 0.01 0.01 0.01 0.01 0.01 0.01 0.01 0.01 0.01 0.01 0.01 0.01 0.01 0.01 0.01 0.01 0.01 0.01 0.01 0.01 0.01 0.01 0.01 0.01 0.01 0.01 0.01 
0.02 0.02 0.02 0.02 0.02 0.02 0.02 0.02 0.02 0.02 0.02 0.02 0.02 0.02 0.02 0.02 0.02 0.02 0.02 0.02 0.02 0.02 0.02 0.02 0.02 0.02 0.02 0.02 0.02 0.02 0.02 0.02 0.02 0.02 0.02 0.02 0.02 0.02 0.02 0.02 0.02 0.02 0.02 0.02 0.02 0.02 0.02 0.02 
0.03 0.03 0.03 0.03 0.03 0.03 0.03 0.03 0.03 0.03 0.03 0.03 0.03 0.03 0.03 0.03 0.03 0.03 0.03 0.03 0.03 0.03 0.03 0.03 0.03 0.03 0.03 0.03 0.03 0.03 0.03 0.03 0.03 0.03 0.03 0.03 0.03 0.03 0.03 0.03 0.03 0.03 0.03 0.03 0.03 0.03 0.03 0.03 
0.04 0.04 0.04 0.04 0.04 0.04 0.04 0.04 0.04 0.04 0.04 0.04 0.04 0.04 0.04 0.04 0.04 0.04 0.04 0.04 0.04 0.04 0.04 0.04 0.04 0.04 0.04 0.04 0.04 0.04 0.04 0.04 0.04 0.04 0.04 0.04 0.04 0.04 0.04 0.04 0.04 0.04 0.04 0.04 0.04 0.04 0.04 0.04 
0.05 0.05 0.05 0.05 0.05 0.05 0.05 0.05 0.05 0.05 0.05 0.05 0.05 0.05 0.05 0.05 0.05 0.05 0.05 0.05 0.05 0.05 0.05 0.05 0.05 0.05 0.05 0.05 0.05 0.05 0.05 0.05 0.05 0.05 0.05 0.05 0.05 0.05 0.05 0.05 0.05 0.05 0.05 0.05 0.05 0.05 0.05 0.05 
0.06 0.06 0.06 0.06 0.06 0.06 0.06 0.06 0.06 0.06 0.06 0.06 0.06 0.06 0.06 0.06 0.06 0.06 0.06 0.06 0.06 0.06 0.06 0.06 0.06 0.06 0.06 0.06 0.06 0.06 0.06 0.06 0.06 0.06 0.06 0.06 0.06 0.06 0.06 0.06 0.06 0.06 0.06 0.06 0.06 0.06 0.06 0.06 
0.07 0.07 0.07 0.07 0.07 0.07 0.07 0.07 0.07 0.07 0.07 0.07 0.07 0.07 0.07 0.07 0.07 0.07 0.07 0.07 0.07 0.07 0.07 0.07 0.07 0.07 0.07 0.07 0.07 0.07 0.07 0.07 0.07 0.07 0.07 0.07 0.07 0.07 0.07 0.07 0.07 0.07 0.07 0.07 0.07 0.07 0.07 0.07 
0.08 0.08 0.08 0.08 0.08 0.08 0.08 0.08 0.08 0.08 0.08 0.08 0.08 0.08 0.08 0.08 0.08 0.08 0.08 0.08 0.08 0.08 0.08 0.08 0.08 0.08 0.08 0.08 0.08 0.08 0.08 0.08 0.08 0.08 0.08 0.08 0.08 0.08 0.08 0.08 0.08 0.08 0.08 0.08 0.08 0.08 0.08 0.08 
0.09 0.09 0.09 0.09 0.09 0.09 0.09 0.09 0.09 0.09 0.09 0.09 0.09 0.09 0.09 0.09 0.09 0.09 0.09 0.09 0.09 0.09 0.09 0.09 0.09 0.09 0.09 0.09 0.09 0.09 0.09 0.09 0.09 0.09 0.09 0.09 0.09 0.09 0.09 0.09 0.09 0.09 0.09 0.09 0.09 0.09 0.09 0.09 
0.1 0.1 0.1 0.1 0.1 0.1 0.1 0.1 0.1 0.1 0.1 0.1 0.1 0.1 0.1 0.1 0.1 0.1 0.1 0.1 0.1 0.1 0.1 0.1 0.1 0.1 0.1 0.1 0.1 0.1 0.1 0.1 0.1 0.1 0.1 0.1 0.1 0.1 0.1 0.1 0.1 0.1 0.1 0.1 0.1 0.1 0.1 0.1 
0.5 0.5 0.5 0.5 0.5 0.5 0.5 0.5 0.5 0.5 0.5 0.5 0.5 0.5 0.5 0.5 0.5 0.5 0.5 0.5 0.5 0.5 0.5 0.5 0.5 0.5 0.5 0.5 0.5 0.5 0.5 0.5 0.5 0.5 0.5 0.5 0.5 0.5 0.5 0.5 0.5 0.5 0.5 0.5 0.5 0.5 0.5 0.5 
1 1 1 1 1 1 1 1 1 1 1 1 1 1 1 1 1 1 1 1 1 1 1 1 1 1 1 1 1 1 1 1 1 1 1 1 1 1 1 1 1 1 1 1 1 1 1 1 
